c colouring generated by benchmark framework
p edge 121 1980
v 1 5
v 2 6
v 3 9
v 4 11
v 5 2
v 6 13
v 7 4
v 8 3
v 9 10
v 10 12
v 11 7
v 12 3
v 13 11
v 14 12
v 15 6
v 16 5
v 17 1
v 18 10
v 19 0
v 20 2
v 21 4
v 22 13
v 23 13
v 24 1
v 25 4
v 26 10
v 27 7
v 28 12
v 29 6
v 30 9
v 31 5
v 32 8
v 33 11
v 34 6
v 35 10
v 36 8
v 37 0
v 38 9
v 39 2
v 40 1
v 41 11
v 42 7
v 43 3
v 44 5
v 45 9
v 46 2
v 47 11
v 48 5
v 49 3
v 50 0
v 51 8
v 52 6
v 53 13
v 54 1
v 55 10
v 56 12
v 57 3
v 58 7
v 59 8
v 60 10
v 61 6
v 62 5
v 63 1
v 64 9
v 65 0
v 66 2
v 67 10
v 68 8
v 69 1
v 70 13
v 71 0
v 72 11
v 73 9
v 74 2
v 75 3
v 76 7
v 77 4
v 78 11
v 79 9
v 80 6
v 81 2
v 82 1
v 83 5
v 84 0
v 85 7
v 86 8
v 87 10
v 88 3
v 89 7
v 90 5
v 91 3
v 92 4
v 93 6
v 94 8
v 95 2
v 96 13
v 97 1
v 98 11
v 99 0
v 100 8
v 101 13
v 102 0
v 103 7
v 104 11
v 105 4
v 106 3
v 107 12
v 108 6
v 109 2
v 110 1
v 111 1
v 112 12
v 113 2
v 114 3
v 115 13
v 116 10
v 117 7
v 118 5
v 119 4
v 120 9
v 121 8
